100 20 100
47 79 9 51 93 81 19 12 17 63 41 52 74 25 38 69 1 61 91 25 50 99 52 62 29 24 93 85 51 74 85 30 35 36 76 69 55 88 86 71 29 91 45 6 29 66 60 42 58 85 44 57 37 97 72 18 73 65 55 25 91 40 55 79 28 83 48 36 72 86 7 53 77 52 60 59 19 20 53 29 57 98 86 46 95 58 64 68 76 19 45 67 60 53 98 40 36 46 76 60 
